
Gurobi 13.0.2 (win64) logging started Thu Jul 23 14:24:25 2026

Set parameter LogFile to value "E:\codes\ExactEBRP\results\gf_gurobi_performance_recovery_round29\runs\stage1__moderate_seed3302__c4_candidate__300s\external\native_logs\L0.1.0.0.1.1.1.0.1_terminal_mip.gurobi.log"
Gurobi Optimizer version 13.0.2 build v13.0.2rc1 (win64 - Windows 10.0 (19045.2))

CPU model: 12th Gen Intel(R) Core(TM) i7-12700KF, instruction set [SSE2|AVX|AVX2]
Thread count: 12 physical cores, 20 logical processors, using up to 1 threads

Non-default parameters:
TimeLimit  231.9549203
MIPGap  0
MIPGapAbs  0
LogToConsole  0
Threads  1

Optimize a model with 11903 rows, 3374 columns and 67328 nonzeros (Min)
Model fingerprint: 0x6f896850
Model has 21 linear objective coefficients
Variable types: 1684 continuous, 1690 integer (1490 binary)
Coefficient statistics:
  Matrix range     [7e-03, 1e+04]
  Objective range  [7e-03, 1e+00]
  Bounds range     [3e-02, 3e+02]
  RHS range        [3e-02, 5e+04]

Presolve removed 853 rows and 77 columns
Presolve time: 0.20s
Presolved: 11050 rows, 3297 columns, 72732 nonzeros
Variable types: 1633 continuous, 1664 integer (1473 binary)

Root relaxation: objective 1.394366e-01, 3291 iterations, 0.21 seconds (0.51 work units)

    Nodes    |    Current Node    |     Objective Bounds      |     Work
 Expl Unexpl |  Obj  Depth IntInf | Incumbent    BestBd   Gap | It/Node Time

     0     0    0.13944    0  213          -    0.13944      -     -    0s
     0     0    0.13944    0  284          -    0.13944      -     -    0s
     0     0    0.15164    0  350          -    0.15164      -     -    2s
     0     0    0.15252    0  315          -    0.15252      -     -    2s
     0     0    0.17905    0  310          -    0.17905      -     -    3s
     0     0    0.17920    0  296          -    0.17920      -     -    3s
     0     0    0.17952    0  328          -    0.17952      -     -    3s
     0     0    0.18423    0  342          -    0.18423      -     -    4s
     0     0    0.18446    0  341          -    0.18446      -     -    4s
     0     0    0.18624    0  361          -    0.18624      -     -    5s
     0     0    0.18723    0  363          -    0.18723      -     -    5s
     0     0    0.18965    0  340          -    0.18965      -     -    6s
     0     0    0.18983    0  330          -    0.18983      -     -    7s
     0     0    0.19355    0  322          -    0.19355      -     -    8s
     0     0 infeasible    0               - infeasible      -     -    8s

Cutting planes:
  Learned: 16
  Cover: 35
  Implied bound: 105
  Clique: 13
  MIR: 256
  StrongCG: 2
  Flow cover: 84
  Zero half: 1
  Network: 15
  RLT: 3
  Relax-and-lift: 31
  BQP: 2

Explored 1 nodes (30093 simplex iterations) in 8.18 seconds (15.65 work units)
Thread count was 1 (of 20 available processors)

Solution count 0

Model is infeasible
Best objective -, best bound -, gap -

User-callback calls 2428, time in user-callback 0.00 sec
